wcsp 50 3 251 512409557603043100
3 3 3 3 3 3 3 3 3 3 3 3 3 3 3 3 3 3 3 3 3 3 3 3 3 3 3 3 3 3 3 3 3 3 3 3 3 3 3 3 3 3 3 3 3 3 3 3 3 3
2 12 21 0 9
0 0 2
0 1 3
0 2 0
1 0 3
1 1 2
1 2 0
2 0 0
2 1 0
2 2 2
2 10 29 0 9
0 0 2
0 1 0
0 2 1
1 0 2
1 1 0
1 2 0
2 0 3
2 1 0
2 2 2
2 27 39 0 9
0 0 3
0 1 0
0 2 0
1 0 3
1 1 0
1 2 2
2 0 3
2 1 0
2 2 1
2 2 40 0 9
0 0 0
0 1 0
0 2 3
1 0 1
1 1 0
1 2 1
2 0 2
2 1 0
2 2 2
2 20 27 0 9
0 0 1
0 1 3
0 2 0
1 0 0
1 1 0
1 2 3
2 0 1
2 1 3
2 2 0
2 6 18 0 9
0 0 0
0 1 2
0 2 0
1 0 2
1 1 0
1 2 1
2 0 0
2 1 2
2 2 1
2 18 37 0 9
0 0 0
0 1 3
0 2 0
1 0 1
1 1 3
1 2 0
2 0 1
2 1 0
2 2 1
2 14 34 0 9
0 0 0
0 1 0
0 2 2
1 0 2
1 1 2
1 2 3
2 0 0
2 1 0
2 2 1
2 1 14 0 9
0 0 0
0 1 2
0 2 0
1 0 3
1 1 2
1 2 0
2 0 2
2 1 2
2 2 0
2 1 49 0 9
0 0 2
0 1 1
0 2 0
1 0 2
1 1 0
1 2 0
2 0 1
2 1 0
2 2 2
2 25 47 0 9
0 0 2
0 1 0
0 2 2
1 0 0
1 1 0
1 2 2
2 0 3
2 1 1
2 2 0
2 17 28 0 9
0 0 2
0 1 0
0 2 0
1 0 2
1 1 0
1 2 0
2 0 3
2 1 2
2 2 1
2 35 42 0 9
0 0 0
0 1 0
0 2 1
1 0 0
1 1 2
1 2 1
2 0 3
2 1 0
2 2 2
2 2 13 0 9
0 0 0
0 1 0
0 2 2
1 0 0
1 1 2
1 2 0
2 0 2
2 1 3
2 2 2
2 21 42 0 9
0 0 3
0 1 0
0 2 2
1 0 1
1 1 1
1 2 0
2 0 0
2 1 1
2 2 0
2 23 25 0 9
0 0 3
0 1 1
0 2 1
1 0 0
1 1 0
1 2 0
2 0 0
2 1 1
2 2 3
2 8 27 0 9
0 0 3
0 1 2
0 2 0
1 0 2
1 1 0
1 2 3
2 0 2
2 1 0
2 2 0
2 44 46 0 9
0 0 0
0 1 0
0 2 2
1 0 3
1 1 0
1 2 2
2 0 2
2 1 2
2 2 0
2 27 35 0 9
0 0 0
0 1 0
0 2 2
1 0 0
1 1 3
1 2 2
2 0 1
2 1 3
2 2 0
2 31 46 0 9
0 0 0
0 1 0
0 2 0
1 0 3
1 1 2
1 2 3
2 0 3
2 1 2
2 2 0
2 46 49 0 9
0 0 0
0 1 0
0 2 2
1 0 0
1 1 1
1 2 3
2 0 2
2 1 0
2 2 2
2 29 31 0 9
0 0 2
0 1 3
0 2 0
1 0 0
1 1 0
1 2 2
2 0 1
2 1 2
2 2 0
2 33 48 0 9
0 0 1
0 1 1
0 2 0
1 0 3
1 1 3
1 2 0
2 0 1
2 1 0
2 2 0
2 3 44 0 9
0 0 0
0 1 0
0 2 0
1 0 0
1 1 1
1 2 2
2 0 2
2 1 1
2 2 2
2 34 49 0 9
0 0 0
0 1 1
0 2 2
1 0 0
1 1 0
1 2 3
2 0 0
2 1 2
2 2 1
2 35 37 0 9
0 0 1
0 1 0
0 2 2
1 0 0
1 1 2
1 2 0
2 0 0
2 1 3
2 2 1
2 26 46 0 9
0 0 0
0 1 3
0 2 1
1 0 0
1 1 0
1 2 0
2 0 2
2 1 3
2 2 2
2 2 33 0 9
0 0 0
0 1 1
0 2 3
1 0 0
1 1 0
1 2 1
2 0 0
2 1 1
2 2 1
2 14 18 0 9
0 0 2
0 1 0
0 2 1
1 0 0
1 1 0
1 2 1
2 0 0
2 1 3
2 2 1
2 32 39 0 9
0 0 1
0 1 0
0 2 0
1 0 1
1 1 0
1 2 3
2 0 3
2 1 0
2 2 1
2 2 9 0 9
0 0 2
0 1 2
0 2 2
1 0 0
1 1 0
1 2 0
2 0 3
2 1 0
2 2 2
2 16 44 0 9
0 0 0
0 1 3
0 2 0
1 0 3
1 1 0
1 2 1
2 0 1
2 1 1
2 2 0
2 19 25 0 9
0 0 2
0 1 1
0 2 0
1 0 0
1 1 2
1 2 3
2 0 0
2 1 0
2 2 3
2 20 23 0 9
0 0 1
0 1 0
0 2 2
1 0 0
1 1 0
1 2 1
2 0 0
2 1 1
2 2 2
2 4 35 0 9
0 0 1
0 1 1
0 2 1
1 0 2
1 1 0
1 2 2
2 0 0
2 1 0
2 2 0
2 12 42 0 9
0 0 3
0 1 0
0 2 3
1 0 0
1 1 0
1 2 3
2 0 3
2 1 0
2 2 2
2 16 27 0 9
0 0 0
0 1 2
0 2 2
1 0 0
1 1 0
1 2 3
2 0 0
2 1 2
2 2 3
2 31 35 0 9
0 0 3
0 1 0
0 2 2
1 0 1
1 1 2
1 2 2
2 0 0
2 1 0
2 2 0
2 11 31 0 9
0 0 2
0 1 0
0 2 0
1 0 3
1 1 0
1 2 3
2 0 1
2 1 0
2 2 3
2 9 12 0 9
0 0 1
0 1 0
0 2 3
1 0 0
1 1 2
1 2 0
2 0 1
2 1 0
2 2 3
2 7 37 0 9
0 0 1
0 1 1
0 2 3
1 0 0
1 1 0
1 2 0
2 0 0
2 1 2
2 2 3
2 2 27 0 9
0 0 0
0 1 0
0 2 3
1 0 2
1 1 0
1 2 3
2 0 2
2 1 3
2 2 0
2 5 25 0 9
0 0 1
0 1 0
0 2 2
1 0 2
1 1 0
1 2 2
2 0 0
2 1 0
2 2 3
2 17 25 0 9
0 0 3
0 1 0
0 2 2
1 0 3
1 1 0
1 2 2
2 0 0
2 1 0
2 2 2
2 21 31 0 9
0 0 3
0 1 2
0 2 2
1 0 0
1 1 0
1 2 0
2 0 0
2 1 1
2 2 3
2 27 30 0 9
0 0 3
0 1 0
0 2 0
1 0 0
1 1 1
1 2 2
2 0 2
2 1 0
2 2 2
2 18 36 0 9
0 0 0
0 1 0
0 2 3
1 0 2
1 1 2
1 2 0
2 0 0
2 1 2
2 2 1
2 10 20 0 9
0 0 0
0 1 0
0 2 0
1 0 0
1 1 3
1 2 2
2 0 3
2 1 3
2 2 3
2 36 37 0 9
0 0 3
0 1 0
0 2 2
1 0 0
1 1 1
1 2 0
2 0 2
2 1 0
2 2 2
2 22 47 0 9
0 0 2
0 1 1
0 2 0
1 0 3
1 1 0
1 2 1
2 0 0
2 1 2
2 2 0
2 0 18 0 9
0 0 2
0 1 0
0 2 0
1 0 0
1 1 3
1 2 2
2 0 0
2 1 2
2 2 1
2 16 46 0 9
0 0 0
0 1 0
0 2 1
1 0 1
1 1 3
1 2 2
2 0 0
2 1 0
2 2 1
2 36 47 0 9
0 0 0
0 1 2
0 2 3
1 0 1
1 1 1
1 2 0
2 0 0
2 1 3
2 2 0
2 0 10 0 9
0 0 0
0 1 2
0 2 0
1 0 3
1 1 0
1 2 3
2 0 0
2 1 1
2 2 2
2 4 14 0 9
0 0 0
0 1 0
0 2 0
1 0 3
1 1 1
1 2 0
2 0 3
2 1 3
2 2 3
2 18 25 0 9
0 0 0
0 1 2
0 2 1
1 0 0
1 1 1
1 2 0
2 0 2
2 1 0
2 2 3
2 6 47 0 9
0 0 3
0 1 0
0 2 2
1 0 0
1 1 0
1 2 1
2 0 1
2 1 0
2 2 2
2 12 24 0 9
0 0 0
0 1 1
0 2 3
1 0 1
1 1 1
1 2 0
2 0 1
2 1 0
2 2 0
2 1 11 0 9
0 0 3
0 1 0
0 2 0
1 0 2
1 1 1
1 2 0
2 0 2
2 1 0
2 2 2
2 40 44 0 9
0 0 0
0 1 2
0 2 3
1 0 0
1 1 0
1 2 1
2 0 3
2 1 2
2 2 0
2 14 46 0 9
0 0 0
0 1 2
0 2 1
1 0 0
1 1 0
1 2 3
2 0 2
2 1 1
2 2 0
2 34 38 0 9
0 0 0
0 1 1
0 2 0
1 0 0
1 1 0
1 2 2
2 0 3
2 1 1
2 2 1
2 4 42 0 9
0 0 3
0 1 2
0 2 2
1 0 1
1 1 0
1 2 1
2 0 0
2 1 0
2 2 0
2 1 4 0 9
0 0 0
0 1 2
0 2 2
1 0 0
1 1 0
1 2 1
2 0 2
2 1 3
2 2 0
2 17 19 0 9
0 0 0
0 1 3
0 2 1
1 0 1
1 1 0
1 2 0
2 0 3
2 1 0
2 2 1
2 5 38 0 9
0 0 1
0 1 0
0 2 3
1 0 0
1 1 0
1 2 3
2 0 3
2 1 3
2 2 0
2 24 34 0 9
0 0 2
0 1 0
0 2 0
1 0 3
1 1 2
1 2 0
2 0 0
2 1 2
2 2 3
2 0 45 0 9
0 0 1
0 1 2
0 2 0
1 0 2
1 1 3
1 2 0
2 0 3
2 1 0
2 2 0
2 2 7 0 9
0 0 0
0 1 0
0 2 1
1 0 1
1 1 0
1 2 0
2 0 2
2 1 2
2 2 2
2 16 18 0 9
0 0 0
0 1 3
0 2 0
1 0 0
1 1 0
1 2 2
2 0 2
2 1 2
2 2 1
2 28 29 0 9
0 0 1
0 1 0
0 2 2
1 0 0
1 1 0
1 2 2
2 0 3
2 1 0
2 2 2
2 25 32 0 9
0 0 2
0 1 3
0 2 1
1 0 0
1 1 1
1 2 0
2 0 0
2 1 0
2 2 1
2 16 30 0 9
0 0 3
0 1 0
0 2 1
1 0 3
1 1 0
1 2 1
2 0 1
2 1 0
2 2 0
2 17 44 0 9
0 0 3
0 1 3
0 2 0
1 0 3
1 1 0
1 2 2
2 0 0
2 1 1
2 2 0
2 38 45 0 9
0 0 0
0 1 1
0 2 0
1 0 0
1 1 1
1 2 0
2 0 1
2 1 2
2 2 3
2 1 5 0 9
0 0 0
0 1 2
0 2 0
1 0 3
1 1 1
1 2 3
2 0 0
2 1 2
2 2 0
2 18 30 0 9
0 0 3
0 1 0
0 2 2
1 0 0
1 1 3
1 2 0
2 0 0
2 1 1
2 2 2
2 9 19 0 9
0 0 0
0 1 3
0 2 3
1 0 0
1 1 1
1 2 1
2 0 3
2 1 0
2 2 0
2 15 16 0 9
0 0 0
0 1 0
0 2 0
1 0 0
1 1 1
1 2 3
2 0 2
2 1 3
2 2 2
2 20 46 0 9
0 0 1
0 1 3
0 2 3
1 0 0
1 1 1
1 2 0
2 0 0
2 1 0
2 2 2
2 0 7 0 9
0 0 0
0 1 2
0 2 2
1 0 2
1 1 0
1 2 3
2 0 0
2 1 0
2 2 3
2 12 25 0 9
0 0 1
0 1 0
0 2 0
1 0 2
1 1 0
1 2 2
2 0 2
2 1 0
2 2 2
2 19 39 0 9
0 0 0
0 1 0
0 2 2
1 0 3
1 1 2
1 2 2
2 0 0
2 1 0
2 2 3
2 16 38 0 9
0 0 0
0 1 0
0 2 0
1 0 2
1 1 2
1 2 0
2 0 1
2 1 3
2 2 2
2 26 32 0 9
0 0 2
0 1 0
0 2 2
1 0 1
1 1 1
1 2 0
2 0 0
2 1 0
2 2 3
2 26 45 0 9
0 0 1
0 1 0
0 2 0
1 0 1
1 1 1
1 2 0
2 0 2
2 1 1
2 2 0
2 4 47 0 9
0 0 3
0 1 0
0 2 3
1 0 2
1 1 2
1 2 0
2 0 0
2 1 0
2 2 2
2 0 28 0 9
0 0 1
0 1 2
0 2 0
1 0 2
1 1 0
1 2 0
2 0 1
2 1 0
2 2 3
2 3 21 0 9
0 0 2
0 1 1
0 2 0
1 0 3
1 1 0
1 2 3
2 0 0
2 1 2
2 2 0
2 33 39 0 9
0 0 0
0 1 2
0 2 0
1 0 3
1 1 3
1 2 0
2 0 2
2 1 0
2 2 1
2 5 23 0 9
0 0 1
0 1 0
0 2 3
1 0 2
1 1 0
1 2 3
2 0 0
2 1 0
2 2 3
2 6 32 0 9
0 0 2
0 1 0
0 2 1
1 0 0
1 1 0
1 2 0
2 0 2
2 1 3
2 2 3
2 22 31 0 9
0 0 0
0 1 1
0 2 0
1 0 3
1 1 1
1 2 3
2 0 0
2 1 2
2 2 0
2 26 30 0 9
0 0 3
0 1 0
0 2 3
1 0 2
1 1 0
1 2 1
2 0 0
2 1 0
2 2 2
2 41 42 0 9
0 0 1
0 1 3
0 2 0
1 0 0
1 1 0
1 2 1
2 0 2
2 1 2
2 2 0
2 1 25 0 9
0 0 3
0 1 0
0 2 3
1 0 0
1 1 1
1 2 2
2 0 0
2 1 1
2 2 0
2 14 24 0 9
0 0 1
0 1 1
0 2 0
1 0 1
1 1 2
1 2 0
2 0 0
2 1 1
2 2 0
2 10 40 0 9
0 0 3
0 1 3
0 2 0
1 0 3
1 1 2
1 2 0
2 0 1
2 1 0
2 2 0
2 10 37 0 9
0 0 0
0 1 1
0 2 1
1 0 0
1 1 2
1 2 2
2 0 3
2 1 0
2 2 0
2 18 24 0 9
0 0 3
0 1 0
0 2 0
1 0 1
1 1 2
1 2 3
2 0 1
2 1 0
2 2 0
2 42 45 0 9
0 0 0
0 1 1
0 2 0
1 0 0
1 1 3
1 2 3
2 0 0
2 1 2
2 2 1
2 24 43 0 9
0 0 0
0 1 1
0 2 0
1 0 3
1 1 3
1 2 3
2 0 0
2 1 0
2 2 2
2 10 28 0 9
0 0 2
0 1 0
0 2 3
1 0 2
1 1 0
1 2 0
2 0 0
2 1 3
2 2 2
2 9 49 0 9
0 0 0
0 1 0
0 2 2
1 0 0
1 1 2
1 2 1
2 0 0
2 1 1
2 2 2
2 11 30 0 9
0 0 0
0 1 1
0 2 0
1 0 2
1 1 0
1 2 1
2 0 2
2 1 0
2 2 1
2 5 30 0 9
0 0 3
0 1 0
0 2 0
1 0 1
1 1 2
1 2 2
2 0 3
2 1 0
2 2 0
2 3 42 0 9
0 0 0
0 1 3
0 2 0
1 0 3
1 1 3
1 2 0
2 0 2
2 1 1
2 2 0
2 13 36 0 9
0 0 1
0 1 3
0 2 3
1 0 0
1 1 1
1 2 0
2 0 0
2 1 3
2 2 0
2 29 46 0 9
0 0 0
0 1 2
0 2 3
1 0 0
1 1 0
1 2 1
2 0 1
2 1 1
2 2 0
2 5 45 0 9
0 0 1
0 1 0
0 2 1
1 0 2
1 1 0
1 2 3
2 0 0
2 1 3
2 2 0
2 0 31 0 9
0 0 1
0 1 0
0 2 0
1 0 3
1 1 1
1 2 3
2 0 0
2 1 0
2 2 2
2 5 29 0 9
0 0 0
0 1 0
0 2 3
1 0 0
1 1 0
1 2 2
2 0 1
2 1 1
2 2 3
2 45 47 0 9
0 0 1
0 1 1
0 2 3
1 0 0
1 1 0
1 2 0
2 0 1
2 1 0
2 2 3
2 4 15 0 9
0 0 0
0 1 1
0 2 2
1 0 0
1 1 3
1 2 2
2 0 0
2 1 0
2 2 3
2 11 26 0 9
0 0 3
0 1 0
0 2 0
1 0 1
1 1 2
1 2 0
2 0 0
2 1 2
2 2 3
2 45 49 0 9
0 0 2
0 1 1
0 2 0
1 0 3
1 1 2
1 2 0
2 0 0
2 1 0
2 2 1
2 3 12 0 9
0 0 1
0 1 3
0 2 1
1 0 0
1 1 3
1 2 0
2 0 0
2 1 0
2 2 2
2 20 28 0 9
0 0 0
0 1 0
0 2 1
1 0 2
1 1 0
1 2 1
2 0 0
2 1 3
2 2 2
2 22 42 0 9
0 0 0
0 1 0
0 2 0
1 0 3
1 1 0
1 2 2
2 0 3
2 1 1
2 2 1
2 27 47 0 9
0 0 0
0 1 0
0 2 3
1 0 3
1 1 2
1 2 1
2 0 1
2 1 0
2 2 0
2 40 42 0 9
0 0 0
0 1 3
0 2 3
1 0 0
1 1 3
1 2 0
2 0 0
2 1 2
2 2 1
2 6 20 0 9
0 0 0
0 1 0
0 2 2
1 0 0
1 1 0
1 2 1
2 0 3
2 1 3
2 2 3
2 17 27 0 9
0 0 0
0 1 0
0 2 2
1 0 3
1 1 0
1 2 2
2 0 3
2 1 2
2 2 0
2 13 16 0 9
0 0 0
0 1 2
0 2 0
1 0 1
1 1 2
1 2 1
2 0 0
2 1 2
2 2 0
2 6 11 0 9
0 0 2
0 1 1
0 2 3
1 0 0
1 1 3
1 2 0
2 0 0
2 1 0
2 2 2
2 3 24 0 9
0 0 1
0 1 0
0 2 0
1 0 1
1 1 1
1 2 3
2 0 3
2 1 0
2 2 0
2 6 25 0 9
0 0 1
0 1 2
0 2 2
1 0 2
1 1 0
1 2 0
2 0 0
2 1 0
2 2 2
2 6 10 0 9
0 0 2
0 1 0
0 2 2
1 0 0
1 1 3
1 2 0
2 0 2
2 1 0
2 2 1
2 5 48 0 9
0 0 1
0 1 0
0 2 2
1 0 0
1 1 2
1 2 0
2 0 3
2 1 3
2 2 0
2 22 26 0 9
0 0 2
0 1 0
0 2 0
1 0 2
1 1 2
1 2 1
2 0 0
2 1 0
2 2 2
2 6 30 0 9
0 0 2
0 1 0
0 2 3
1 0 1
1 1 2
1 2 2
2 0 0
2 1 0
2 2 0
2 21 30 0 9
0 0 1
0 1 3
0 2 2
1 0 0
1 1 1
1 2 0
2 0 0
2 1 3
2 2 0
2 9 34 0 9
0 0 1
0 1 1
0 2 1
1 0 0
1 1 0
1 2 1
2 0 0
2 1 1
2 2 0
2 0 11 0 9
0 0 1
0 1 0
0 2 2
1 0 0
1 1 2
1 2 0
2 0 1
2 1 0
2 2 1
2 31 37 0 9
0 0 1
0 1 2
0 2 0
1 0 0
1 1 3
1 2 0
2 0 3
2 1 0
2 2 1
2 5 39 0 9
0 0 0
0 1 1
0 2 0
1 0 3
1 1 1
1 2 1
2 0 3
2 1 0
2 2 0
2 3 30 0 9
0 0 2
0 1 3
0 2 3
1 0 1
1 1 0
1 2 0
2 0 0
2 1 1
2 2 0
2 21 35 0 9
0 0 0
0 1 1
0 2 2
1 0 0
1 1 0
1 2 3
2 0 0
2 1 2
2 2 1
2 10 39 0 9
0 0 1
0 1 3
0 2 3
1 0 0
1 1 0
1 2 0
2 0 0
2 1 3
2 2 1
2 11 42 0 9
0 0 3
0 1 3
0 2 0
1 0 3
1 1 0
1 2 0
2 0 3
2 1 0
2 2 2
2 10 45 0 9
0 0 0
0 1 0
0 2 3
1 0 3
1 1 1
1 2 2
2 0 0
2 1 0
2 2 2
2 19 43 0 9
0 0 0
0 1 2
0 2 2
1 0 0
1 1 0
1 2 3
2 0 2
2 1 1
2 2 0
2 28 33 0 9
0 0 2
0 1 1
0 2 0
1 0 2
1 1 2
1 2 1
2 0 0
2 1 0
2 2 0
2 14 22 0 9
0 0 0
0 1 0
0 2 0
1 0 3
1 1 0
1 2 3
2 0 2
2 1 2
2 2 1
2 15 39 0 9
0 0 1
0 1 2
0 2 3
1 0 1
1 1 0
1 2 1
2 0 0
2 1 0
2 2 0
2 2 37 0 9
0 0 0
0 1 2
0 2 1
1 0 0
1 1 1
1 2 0
2 0 0
2 1 3
2 2 3
2 17 22 0 9
0 0 0
0 1 0
0 2 2
1 0 0
1 1 0
1 2 1
2 0 3
2 1 2
2 2 3
2 8 40 0 9
0 0 3
0 1 1
0 2 0
1 0 0
1 1 1
1 2 0
2 0 0
2 1 3
2 2 3
2 32 35 0 9
0 0 3
0 1 0
0 2 1
1 0 0
1 1 0
1 2 3
2 0 0
2 1 2
2 2 3
2 12 19 0 9
0 0 1
0 1 2
0 2 0
1 0 0
1 1 2
1 2 0
2 0 2
2 1 0
2 2 1
2 5 9 0 9
0 0 0
0 1 0
0 2 1
1 0 0
1 1 0
1 2 2
2 0 3
2 1 2
2 2 2
2 7 46 0 9
0 0 2
0 1 3
0 2 0
1 0 3
1 1 0
1 2 0
2 0 1
2 1 0
2 2 2
2 0 43 0 9
0 0 3
0 1 0
0 2 0
1 0 0
1 1 1
1 2 0
2 0 1
2 1 1
2 2 1
2 17 48 0 9
0 0 1
0 1 0
0 2 0
1 0 0
1 1 1
1 2 2
2 0 0
2 1 1
2 2 3
2 22 27 0 9
0 0 2
0 1 0
0 2 1
1 0 0
1 1 3
1 2 2
2 0 0
2 1 2
2 2 0
2 26 31 0 9
0 0 1
0 1 3
0 2 0
1 0 0
1 1 2
1 2 0
2 0 2
2 1 3
2 2 0
2 41 46 0 9
0 0 0
0 1 2
0 2 1
1 0 1
1 1 0
1 2 2
2 0 3
2 1 0
2 2 0
2 27 36 0 9
0 0 0
0 1 3
0 2 0
1 0 0
1 1 2
1 2 2
2 0 2
2 1 0
2 2 3
2 11 27 0 9
0 0 2
0 1 0
0 2 2
1 0 0
1 1 1
1 2 2
2 0 0
2 1 0
2 2 2
2 17 18 0 9
0 0 2
0 1 3
0 2 0
1 0 2
1 1 2
1 2 0
2 0 0
2 1 0
2 2 2
2 13 43 0 9
0 0 3
0 1 0
0 2 3
1 0 3
1 1 2
1 2 0
2 0 2
2 1 0
2 2 0
2 23 46 0 9
0 0 0
0 1 0
0 2 3
1 0 0
1 1 1
1 2 3
2 0 1
2 1 1
2 2 0
2 2 22 0 9
0 0 2
0 1 1
0 2 3
1 0 0
1 1 3
1 2 1
2 0 0
2 1 0
2 2 0
2 9 27 0 9
0 0 0
0 1 0
0 2 1
1 0 0
1 1 3
1 2 3
2 0 1
2 1 0
2 2 1
2 7 44 0 9
0 0 2
0 1 3
0 2 0
1 0 0
1 1 2
1 2 0
2 0 0
2 1 1
2 2 2
2 7 48 0 9
0 0 0
0 1 0
0 2 1
1 0 3
1 1 0
1 2 3
2 0 1
2 1 3
2 2 0
2 19 47 0 9
0 0 0
0 1 0
0 2 0
1 0 2
1 1 2
1 2 2
2 0 3
2 1 0
2 2 2
2 1 39 0 9
0 0 0
0 1 0
0 2 3
1 0 0
1 1 3
1 2 0
2 0 1
2 1 2
2 2 1
2 24 46 0 9
0 0 0
0 1 3
0 2 0
1 0 1
1 1 1
1 2 1
2 0 2
2 1 0
2 2 0
2 40 41 0 9
0 0 1
0 1 1
0 2 2
1 0 0
1 1 1
1 2 0
2 0 0
2 1 3
2 2 0
2 1 32 0 9
0 0 3
0 1 1
0 2 2
1 0 1
1 1 0
1 2 0
2 0 2
2 1 0
2 2 0
2 28 35 0 9
0 0 1
0 1 0
0 2 2
1 0 1
1 1 0
1 2 2
2 0 1
2 1 0
2 2 0
2 6 16 0 9
0 0 0
0 1 3
0 2 1
1 0 0
1 1 0
1 2 0
2 0 3
2 1 2
2 2 3
2 8 45 0 9
0 0 3
0 1 0
0 2 0
1 0 3
1 1 0
1 2 1
2 0 1
2 1 3
2 2 0
2 13 31 0 9
0 0 1
0 1 3
0 2 3
1 0 1
1 1 0
1 2 0
2 0 0
2 1 2
2 2 0
2 3 29 0 9
0 0 0
0 1 1
0 2 3
1 0 1
1 1 0
1 2 2
2 0 0
2 1 1
2 2 0
2 11 49 0 9
0 0 2
0 1 1
0 2 3
1 0 0
1 1 0
1 2 0
2 0 0
2 1 1
2 2 2
2 30 43 0 9
0 0 0
0 1 3
0 2 2
1 0 2
1 1 0
1 2 0
2 0 2
2 1 2
2 2 0
2 2 18 0 9
0 0 0
0 1 0
0 2 1
1 0 2
1 1 3
1 2 0
2 0 2
2 1 1
2 2 0
2 1 33 0 9
0 0 2
0 1 3
0 2 0
1 0 0
1 1 2
1 2 2
2 0 0
2 1 0
2 2 2
2 2 39 0 9
0 0 0
0 1 1
0 2 0
1 0 0
1 1 1
1 2 1
2 0 2
2 1 1
2 2 0
2 2 38 0 9
0 0 1
0 1 0
0 2 3
1 0 3
1 1 3
1 2 0
2 0 0
2 1 1
2 2 0
2 12 47 0 9
0 0 0
0 1 0
0 2 0
1 0 2
1 1 3
1 2 1
2 0 0
2 1 1
2 2 1
2 29 38 0 9
0 0 1
0 1 0
0 2 2
1 0 0
1 1 0
1 2 0
2 0 1
2 1 3
2 2 3
2 9 28 0 9
0 0 0
0 1 2
0 2 1
1 0 2
1 1 2
1 2 0
2 0 0
2 1 2
2 2 0
2 13 20 0 9
0 0 3
0 1 3
0 2 0
1 0 3
1 1 3
1 2 0
2 0 1
2 1 0
2 2 0
2 44 48 0 9
0 0 2
0 1 0
0 2 2
1 0 0
1 1 0
1 2 2
2 0 2
2 1 2
2 2 0
2 21 44 0 9
0 0 2
0 1 3
0 2 0
1 0 0
1 1 3
1 2 1
2 0 0
2 1 3
2 2 0
2 25 49 0 9
0 0 3
0 1 3
0 2 0
1 0 0
1 1 0
1 2 1
2 0 3
2 1 0
2 2 2
2 42 44 0 9
0 0 0
0 1 0
0 2 1
1 0 0
1 1 0
1 2 1
2 0 3
2 1 3
2 2 2
2 7 47 0 9
0 0 0
0 1 2
0 2 0
1 0 0
1 1 3
1 2 2
2 0 3
2 1 3
2 2 0
2 3 5 0 9
0 0 2
0 1 0
0 2 3
1 0 0
1 1 3
1 2 0
2 0 0
2 1 2
2 2 1
2 18 43 0 9
0 0 1
0 1 2
0 2 3
1 0 0
1 1 0
1 2 0
2 0 1
2 1 1
2 2 0
2 8 34 0 9
0 0 0
0 1 0
0 2 3
1 0 3
1 1 0
1 2 1
2 0 0
2 1 2
2 2 3
2 20 42 0 9
0 0 3
0 1 0
0 2 1
1 0 0
1 1 2
1 2 2
2 0 0
2 1 2
2 2 0
2 41 45 0 9
0 0 1
0 1 2
0 2 0
1 0 0
1 1 0
1 2 2
2 0 2
2 1 0
2 2 3
2 0 1 0 9
0 0 0
0 1 1
0 2 1
1 0 1
1 1 2
1 2 0
2 0 0
2 1 3
2 2 0
2 15 34 0 9
0 0 0
0 1 0
0 2 2
1 0 3
1 1 2
1 2 3
2 0 2
2 1 0
2 2 0
2 41 48 0 9
0 0 0
0 1 3
0 2 0
1 0 2
1 1 0
1 2 0
2 0 3
2 1 3
2 2 1
2 47 49 0 9
0 0 3
0 1 2
0 2 2
1 0 1
1 1 0
1 2 0
2 0 0
2 1 0
2 2 3
1 0 512409557603043100 3
0 3
1 0
2 3
1 1 512409557603043100 3
0 3
1 1
2 0
1 2 512409557603043100 3
0 0
1 2
2 1
1 3 512409557603043100 3
0 1
1 0
2 1
1 4 512409557603043100 3
0 0
1 1
2 0
1 5 512409557603043100 3
0 1
1 3
2 0
1 6 512409557603043100 3
0 2
1 0
2 0
1 7 512409557603043100 3
0 1
1 0
2 1
1 8 512409557603043100 3
0 0
1 1
2 0
1 9 512409557603043100 3
0 2
1 0
2 3
1 10 512409557603043100 3
0 0
1 0
2 2
1 11 512409557603043100 3
0 0
1 1
2 0
1 12 512409557603043100 3
0 2
1 2
2 0
1 13 512409557603043100 3
0 2
1 1
2 0
1 14 512409557603043100 3
0 1
1 1
2 0
1 15 512409557603043100 3
0 2
1 0
2 1
1 16 512409557603043100 3
0 0
1 0
2 2
1 17 512409557603043100 3
0 2
1 0
2 0
1 18 512409557603043100 3
0 0
1 3
2 3
1 19 512409557603043100 3
0 0
1 3
2 1
1 20 512409557603043100 3
0 0
1 0
2 0
1 21 512409557603043100 3
0 2
1 3
2 0
1 22 512409557603043100 3
0 0
1 2
2 1
1 23 512409557603043100 3
0 1
1 0
2 0
1 24 512409557603043100 3
0 0
1 0
2 3
1 25 512409557603043100 3
0 0
1 1
2 1
1 26 512409557603043100 3
0 2
1 0
2 1
1 27 512409557603043100 3
0 1
1 2
2 0
1 28 512409557603043100 3
0 0
1 1
2 1
1 29 512409557603043100 3
0 3
1 0
2 1
1 30 512409557603043100 3
0 0
1 2
2 3
1 31 512409557603043100 3
0 0
1 3
2 3
1 32 512409557603043100 3
0 3
1 3
2 0
1 33 512409557603043100 3
0 0
1 0
2 2
1 34 512409557603043100 3
0 2
1 3
2 0
1 35 512409557603043100 3
0 0
1 3
2 1
1 36 512409557603043100 3
0 1
1 0
2 1
1 37 512409557603043100 3
0 0
1 2
2 1
1 38 512409557603043100 3
0 3
1 0
2 0
1 39 512409557603043100 3
0 0
1 2
2 1
1 40 512409557603043100 3
0 3
1 2
2 0
1 41 512409557603043100 3
0 1
1 1
2 0
1 42 512409557603043100 3
0 3
1 0
2 0
1 43 512409557603043100 3
0 3
1 0
2 3
1 44 512409557603043100 3
0 3
1 1
2 0
1 45 512409557603043100 3
0 2
1 0
2 2
1 46 512409557603043100 3
0 0
1 1
2 0
1 47 512409557603043100 3
0 0
1 2
2 1
1 48 512409557603043100 3
0 0
1 1
2 1
1 49 512409557603043100 3
0 1
1 1
2 0
0 25 0
